(set-logic QF_S)
(declare-fun var_0xINPUT_63289 () String)
(assert (and (not (= var_0xINPUT_63289 "qXdHDo7IZR")) (= (len var_0xINPUT_63289) 0) (not (= var_0xINPUT_63289 "Example:")) (not (= var_0xINPUT_63289 "qXdHDo7IZR"))))
(check-sat var_0xINPUT_63289)